\ Model QCP
\ LP format - for model browsing. Use MPS format to capture full model detail.
Minimize
  z + 1.27 y
Subject To
 Cut_0: z + [ 0.0269642026964203 y ^2 ] >= 2630.511390051139
 Cut_1: z + [ 0.0015826958586125 y ^2 ] >= 2509.543128462147
Bounds
 2502 <= z <= 3355
 39.24283374069717 <= y <= 69.03622237637282
End
